========================================================== 
File name: C:\DEGR\assets\definitions\MSRCPSP_Gen\100_5_64_5_A.def
Creation date: Wed May 03 10:34:23 CEST 2023
Website: http://imopse.ii.pwr.edu.pl/ 
Reference: 
Myszkowski P. B., Skowronski M. E., Olech L., Oslizlo K., 
Hybrid Ant Colony Optimization in solving Multi-Skill Resource-Constrained Project Scheduling Problem, 
Soft Computing, DOI: DOI 10.1007/s00500-014-1455-x 
========================================================== 
General characteristics: 
Tasks: 100
Resources: 5
Precedence relations: 63
Number of skill types: 5
========================================================== 
ResourceID 	 Salary 	 Skills 
1	 	 	60.3	 	 Q4: 2 	  Q3: 2 	  Q0: 3 	 
2	 	 	98.3	 	 Q4: 1 	  Q2: 2 	  Q1: 1 	 
3	 	 	22.2	 	 Q4: 2 	  Q2: 2 	  Q0: 1 	 
4	 	 	59.8	 	 Q2: 1 	 
5	 	 	40.2	 	 Q0: 2 	  Q4: 3 	 
========================================================== 
TaskID 	 Duration 	 Skill 	 Predecessor IDs 
1	13	Q4:	3
2	26	Q4:	3
3	13	Q4:	3
4	39	Q4:	1
5	24	Q3:	2
6	14	Q4:	3
7	34	Q1:	1
8	40	Q0:	2
9	19	Q2:	2
10	36	Q2:	2	6
11	35	Q3:	2	5
12	36	Q0:	1	11
13	19	Q0:	2
14	37	Q0:	3
15	39	Q4:	1
16	22	Q0:	3
17	9	Q3:	2
18	19	Q2:	2	11
19	28	Q4:	2
20	17	Q2:	1
21	20	Q2:	2
22	22	Q2:	2
23	30	Q4:	2
24	29	Q0:	2
25	11	Q2:	1
26	39	Q4:	2	12	8
27	11	Q4:	1
28	17	Q3:	2
29	39	Q3:	2
30	18	Q4:	1	20	11
31	17	Q3:	2	6
32	29	Q4:	3	4
33	26	Q1:	1	29
34	37	Q2:	1
35	17	Q0:	1
36	26	Q2:	2
37	36	Q3:	2
38	20	Q2:	2
39	31	Q1:	1	3	11
40	10	Q0:	1
41	27	Q0:	3	34
42	38	Q4:	2
43	39	Q4:	1
44	20	Q4:	3	6
45	33	Q0:	3	29
46	38	Q0:	3
47	12	Q2:	2
48	22	Q2:	2
49	12	Q2:	2
50	16	Q1:	1
51	25	Q0:	3
52	13	Q3:	2
53	37	Q2:	2
54	30	Q1:	1	39
55	17	Q4:	2
56	10	Q4:	3
57	21	Q2:	2
58	14	Q2:	1	29
59	15	Q3:	2
60	17	Q3:	2	14
61	13	Q1:	1
62	11	Q1:	1
63	17	Q0:	3	19
64	15	Q1:	1
65	11	Q4:	1
66	30	Q1:	1	15
67	36	Q1:	1	51	36
68	10	Q4:	3
69	38	Q2:	1
70	15	Q4:	1
71	16	Q2:	2	46
72	35	Q1:	1	38
73	11	Q2:	2	62	35
74	9	Q3:	2	11	16	54
75	40	Q3:	2	7
76	32	Q0:	2	53	12
77	30	Q1:	1	27
78	11	Q2:	2	40
79	33	Q1:	1
80	28	Q3:	2	53
81	13	Q4:	3	2
82	17	Q3:	2	17
83	39	Q4:	3	33	66	58
84	16	Q0:	1	59
85	39	Q3:	2	24	29
86	9	Q0:	2	80
87	10	Q1:	1	50
88	16	Q2:	1
89	34	Q0:	1	60
90	22	Q1:	1	48
91	33	Q4:	3	16	26	28
92	34	Q4:	2
93	25	Q2:	2
94	25	Q4:	1	58	17
95	14	Q1:	1	57	86
96	20	Q2:	1	42
97	18	Q3:	2	22
98	27	Q4:	2	33	44	40
99	27	Q0:	1
100	33	Q0:	1	53	87	3
========================================================== 